 Code   733
 Dimension, Fixed Cost
   100        3000
 Facility, Client, Transportation Cost
     1        1           1
     1        2           2
     1        7           4
     1       20           2
     1       41           4
     1       57           4
     1       62           0
     1       64           4
     1       69           0
     1       79           2
     2       23           0
     2       40           3
     2       54           0
     2       55           3
     2       65           1
     2       69           0
     2       72           4
     2       78           3
     2       79           1
     2       81           0
     3       22           0
     3       26           1
     3       29           3
     3       30           3
     3       45           0
     3       59           2
     3       72           0
     3       97           0
     3       99           0
     3      100           2
     4        2           4
     4        9           1
     4       12           3
     4       16           0
     4       31           1
     4       56           1
     4       92           3
     4       96           3
     4       97           0
     4       99           4
     5        4           1
     5       13           3
     5       15           3
     5       19           3
     5       21           2
     5       41           2
     5       44           0
     5       45           1
     5       52           4
     5       57           0
     6        3           2
     6        7           3
     6       20           3
     6       26           0
     6       35           2
     6       49           0
     6       50           4
     6       52           0
     6       61           1
     6       65           0
     7        4           3
     7       10           3
     7       13           0
     7       73           1
     7       90           3
     7       96           3
     7       97           4
     7       98           0
     7       99           3
     7      100           3
     8        2           4
     8       22           1
     8       39           3
     8       47           2
     8       49           3
     8       50           3
     8       51           2
     8       52           0
     8       53           2
     8       71           3
     9        6           2
     9       32           0
     9       34           3
     9       37           1
     9       54           3
     9       78           2
     9       81           4
     9       83           2
     9       88           2
     9       89           3
    10       13           4
    10       24           2
    10       26           4
    10       27           1
    10       34           1
    10       39           2
    10       43           4
    10       66           4
    10       67           1
    10       86           4
    11       18           3
    11       48           4
    11       50           1
    11       52           1
    11       58           3
    11       59           4
    11       73           0
    11       86           0
    11       90           0
    11       94           0
    12       10           0
    12       18           1
    12       38           3
    12       59           2
    12       70           4
    12       77           1
    12       79           3
    12       80           3
    12       87           3
    12       90           3
    13       19           3
    13       24           3
    13       31           4
    13       32           3
    13       36           1
    13       48           1
    13       52           0
    13       60           2
    13       68           0
    13       75           0
    14        1           1
    14        2           2
    14        6           2
    14       11           2
    14       35           1
    14       41           4
    14       62           3
    14       70           0
    14       71           1
    14       75           2
    15       20           0
    15       28           0
    15       31           4
    15       33           3
    15       60           1
    15       64           2
    15       69           2
    15       74           2
    15       92           3
    15       96           1
    16       14           2
    16       30           1
    16       45           3
    16       49           1
    16       84           3
    16       86           1
    16       90           3
    16       95           4
    16       96           1
    16       98           3
    17       10           1
    17       11           3
    17       12           0
    17       18           1
    17       23           0
    17       25           4
    17       31           4
    17       32           4
    17       57           2
    17       77           0
    18        6           2
    18       23           2
    18       45           4
    18       67           0
    18       82           4
    18       91           2
    18       94           2
    18       98           3
    18       99           1
    18      100           1
    19        4           2
    19       26           1
    19       39           2
    19       62           4
    19       65           1
    19       66           3
    19       84           3
    19       88           1
    19       92           0
    19       95           3
    20        1           1
    20        8           4
    20       24           4
    20       30           3
    20       39           0
    20       57           4
    20       62           3
    20       79           0
    20       84           2
    20       87           1
    21       20           4
    21       30           4
    21       36           1
    21       38           1
    21       73           4
    21       81           4
    21       90           2
    21       92           2
    21       93           4
    21       97           2
    22       10           0
    22       35           3
    22       43           3
    22       54           0
    22       61           3
    22       67           2
    22       74           4
    22       76           3
    22       87           3
    22       95           2
    23        5           3
    23       42           3
    23       44           1
    23       54           2
    23       58           3
    23       90           2
    23       91           3
    23       92           0
    23       95           3
    23       97           4
    24        3           2
    24       28           2
    24       30           2
    24       40           0
    24       43           1
    24       44           2
    24       61           2
    24       64           1
    24       85           2
    24       89           2
    25        8           3
    25        9           4
    25       38           2
    25       66           3
    25       74           0
    25       87           0
    25       89           1
    25       94           0
    25       95           2
    25       97           3
    26       17           3
    26       29           3
    26       80           1
    26       84           3
    26       85           4
    26       94           2
    26       95           4
    26       96           0
    26       99           3
    26      100           2
    27       17           0
    27       24           4
    27       37           3
    27       40           0
    27       42           3
    27       47           0
    27       79           2
    27       82           2
    27       83           1
    27       94           3
    28       15           3
    28       17           4
    28       22           0
    28       23           4
    28       35           0
    28       37           2
    28       43           1
    28       46           1
    28       72           3
    28       77           1
    29       11           1
    29       16           0
    29       29           1
    29       34           0
    29       52           4
    29       58           4
    29       64           0
    29       67           3
    29       83           1
    29       84           2
    30        7           3
    30       22           1
    30       48           2
    30       60           1
    30       68           3
    30       72           3
    30       84           2
    30       96           4
    30       98           1
    30      100           1
    31        4           1
    31        8           0
    31       14           3
    31       16           2
    31       20           1
    31       46           4
    31       48           0
    31       51           4
    31       53           4
    31       70           3
    32        7           3
    32       10           4
    32       19           4
    32       22           2
    32       25           2
    32       28           2
    32       36           3
    32       42           3
    32       43           1
    32       51           1
    33       19           3
    33       27           1
    33       33           2
    33       34           2
    33       53           4
    33       60           4
    33       63           3
    33       65           4
    33       75           0
    33       83           1
    34        3           4
    34        6           3
    34       12           0
    34       22           2
    34       23           0
    34       31           4
    34       32           4
    34       53           3
    34       59           1
    34       78           2
    35       19           1
    35       27           4
    35       28           2
    35       32           2
    35       37           3
    35       40           4
    35       81           1
    35       83           2
    35       87           3
    35       91           0
    36        5           4
    36       14           3
    36       21           1
    36       35           1
    36       43           2
    36       66           1
    36       74           0
    36       85           4
    36       92           3
    36       95           0
    37       24           2
    37       40           4
    37       45           1
    37       46           3
    37       54           2
    37       61           0
    37       66           2
    37       73           1
    37       77           1
    37       92           1
    38       27           4
    38       38           4
    38       51           1
    38       52           2
    38       56           3
    38       67           0
    38       71           0
    38       94           0
    38       97           0
    38       98           3
    39        5           1
    39       21           3
    39       26           2
    39       41           4
    39       51           0
    39       55           0
    39       86           1
    39       88           1
    39       93           1
    39       95           3
    40       17           2
    40       18           1
    40       21           0
    40       22           3
    40       36           0
    40       45           4
    40       47           2
    40       50           0
    40       53           4
    40       67           1
    41        5           1
    41       12           3
    41       20           2
    41       57           1
    41       59           0
    41       74           4
    41       78           2
    41       81           2
    41       82           3
    41       94           0
    42        1           2
    42       24           0
    42       33           2
    42       41           0
    42       45           3
    42       46           3
    42       50           3
    42       62           0
    42       68           0
    42       78           1
    43       28           0
    43       44           2
    43       67           0
    43       70           3
    43       75           2
    43       85           0
    43       88           4
    43       91           1
    43       94           0
    43       97           2
    44        3           3
    44        7           3
    44       15           4
    44       23           1
    44       25           1
    44       34           4
    44       58           1
    44       81           1
    44       84           4
    44       89           4
    45       12           3
    45       17           4
    45       34           3
    45       42           0
    45       44           3
    45       54           1
    45       64           1
    45       66           0
    45       69           1
    45       73           1
    46        7           3
    46       16           1
    46       26           1
    46       31           2
    46       32           0
    46       44           2
    46       48           0
    46       49           0
    46       58           0
    46       64           1
    47        8           1
    47       21           0
    47       42           1
    47       54           3
    47       59           4
    47       61           3
    47       62           0
    47       63           4
    47       66           2
    47       76           0
    48        7           2
    48       11           2
    48       14           1
    48       21           4
    48       26           2
    48       28           2
    48       42           4
    48       47           1
    48       49           1
    48       58           3
    49        4           2
    49        8           4
    49       10           0
    49       39           1
    49       41           1
    49       42           0
    49       47           4
    49       61           0
    49       69           0
    49       70           1
    50        6           4
    50       11           3
    50       14           4
    50       15           1
    50       17           0
    50       28           0
    50       41           0
    50       75           4
    50       76           2
    50       78           4
    51        3           2
    51       11           2
    51       46           4
    51       55           4
    51       62           4
    51       63           3
    51       68           0
    51       88           2
    51       95           1
    51       96           0
    52        5           2
    52       26           2
    52       27           1
    52       49           4
    52       57           2
    52       65           1
    52       66           4
    52       87           4
    52       95           1
    52       98           1
    53        1           0
    53        4           0
    53        5           3
    53        9           1
    53       12           0
    53       16           0
    53       49           2
    53       58           3
    53       61           2
    53       63           3
    54        2           1
    54        6           0
    54       16           1
    54       32           3
    54       36           0
    54       40           2
    54       45           0
    54       73           2
    54       75           4
    54       80           4
    55        2           3
    55       11           0
    55       37           0
    55       60           3
    55       63           0
    55       64           4
    55       71           3
    55       93           0
    55       96           2
    55       99           0
    56        3           0
    56       27           2
    56       29           2
    56       35           2
    56       70           1
    56       81           2
    56       82           2
    56       88           1
    56       91           3
    56       92           3
    57       19           2
    57       29           4
    57       57           4
    57       67           4
    57       71           1
    57       72           0
    57       83           4
    57       85           2
    57       90           0
    57       92           2
    58        1           0
    58        2           3
    58       11           0
    58       42           4
    58       50           0
    58       51           3
    58       63           2
    58       76           3
    58       86           3
    58       88           2
    59        8           3
    59       15           1
    59       19           3
    59       25           4
    59       27           1
    59       34           3
    59       36           2
    59       42           4
    59       56           0
    59       69           0
    60        7           1
    60       24           3
    60       36           4
    60       39           2
    60       44           3
    60       46           3
    60       56           3
    60       65           4
    60       66           3
    60       79           1
    61        9           4
    61       13           1
    61       32           3
    61       33           3
    61       39           2
    61       40           4
    61       53           4
    61       85           1
    61       87           4
    61       91           2
    62        9           3
    62       32           2
    62       50           4
    62       63           0
    62       71           4
    62       72           4
    62       83           3
    62       86           4
    62       87           4
    62       93           0
    63       13           3
    63       15           1
    63       20           4
    63       25           1
    63       35           2
    63       43           1
    63       47           0
    63       53           1
    63       64           2
    63       77           1
    64        7           4
    64       16           1
    64       22           0
    64       36           0
    64       39           3
    64       41           4
    64       46           3
    64       48           3
    64       75           0
    64       82           4
    65        3           2
    65       28           2
    65       38           3
    65       48           2
    65       55           3
    65       76           0
    65       77           0
    65       79           4
    65       80           0
    65       84           0
    66       18           0
    66       24           4
    66       40           0
    66       46           1
    66       56           1
    66       57           2
    66       60           1
    66       63           2
    66       65           4
    66       76           0
    67        3           3
    67       14           1
    67       18           3
    67       33           1
    67       38           2
    67       49           3
    67       52           0
    67       55           0
    67       59           3
    67       68           3
    68       25           4
    68       29           4
    68       34           2
    68       38           3
    68       43           0
    68       65           4
    68       69           0
    68       74           0
    68       77           2
    68       78           2
    69       12           2
    69       25           3
    69       46           2
    69       51           3
    69       58           3
    69       59           3
    69       62           3
    69       63           1
    69       64           1
    69       74           2
    70        3           0
    70       13           2
    70       27           3
    70       37           1
    70       66           2
    70       71           1
    70       82           0
    70       88           3
    70       99           3
    70      100           0
    71        5           3
    71        9           0
    71       10           2
    71       31           2
    71       57           3
    71       75           4
    71       79           3
    71       88           2
    71       89           4
    71       93           3
    72       10           1
    72       15           3
    72       25           0
    72       41           0
    72       54           0
    72       62           2
    72       80           2
    72       83           0
    72       90           0
    72       92           0
    73        8           2
    73       14           2
    73       20           4
    73       27           4
    73       33           0
    73       50           3
    73       62           2
    73       68           1
    73       73           1
    73       76           3
    74        6           0
    74       18           4
    74       26           3
    74       37           1
    74       70           2
    74       74           1
    74       79           3
    74       82           0
    74       90           3
    74       93           2
    75        2           4
    75       18           2
    75       19           1
    75       42           4
    75       45           0
    75       61           3
    75       75           1
    75       76           3
    75       77           3
    75       85           4
    76        4           3
    76       12           0
    76       13           4
    76       17           4
    76       19           1
    76       25           1
    76       30           3
    76       31           0
    76       47           3
    76       48           4
    77        1           3
    77       23           2
    77       33           1
    77       35           2
    77       38           1
    77       49           3
    77       55           1
    77       80           4
    77       84           0
    77       98           0
    78       11           2
    78       22           3
    78       24           4
    78       53           3
    78       56           3
    78       72           1
    78       77           0
    78       78           3
    78       81           3
    78       82           1
    79        3           3
    79        5           0
    79        8           4
    79       13           2
    79       14           1
    79       16           3
    79       21           0
    79       30           2
    79       31           3
    79       34           3
    80        1           0
    80        9           0
    80       21           3
    80       23           4
    80       36           1
    80       44           0
    80       46           3
    80       56           1
    80       78           3
    80       81           0
    81        1           1
    81        6           0
    81       12           2
    81       29           4
    81       35           1
    81       38           4
    81       45           0
    81       51           2
    81       61           4
    81       71           1
    82       17           4
    82       29           3
    82       31           0
    82       38           4
    82       64           1
    82       65           0
    82       67           3
    82       80           0
    82       87           2
    82       89           1
    83       18           3
    83       23           1
    83       35           4
    83       44           3
    83       68           0
    83       69           0
    83       72           3
    83       74           4
    83       80           2
    83       96           1
    84        9           0
    84       13           1
    84       37           0
    84       48           0
    84       53           4
    84       59           1
    84       60           1
    84       70           3
    84       80           4
    84       83           1
    85        4           3
    85       11           2
    85       12           2
    85       15           1
    85       54           3
    85       72           2
    85       75           2
    85       85           1
    85       86           4
    85       93           1
    86       10           3
    86       13           4
    86       16           1
    86       22           0
    86       25           2
    86       39           3
    86       47           0
    86       68           1
    86       79           3
    86       80           2
    87       21           2
    87       33           2
    87       55           4
    87       74           2
    87       81           2
    87       86           3
    87       89           3
    87       91           3
    87       97           2
    87      100           1
    88        9           2
    88       30           4
    88       34           3
    88       50           4
    88       58           2
    88       59           4
    88       60           1
    88       67           2
    88       73           2
    88       82           0
    89        5           0
    89        6           3
    89       15           1
    89       33           1
    89       48           1
    89       60           3
    89       85           0
    89       98           2
    89       99           3
    89      100           2
    90       53           1
    90       69           4
    90       77           2
    90       91           4
    90       93           0
    90       96           1
    90       97           2
    90       98           0
    90       99           2
    90      100           4
    91        9           4
    91       15           3
    91       17           0
    91       20           0
    91       54           4
    91       57           3
    91       68           1
    91       70           1
    91       87           1
    91       90           4
    92       32           1
    92       37           0
    92       40           4
    92       51           0
    92       76           4
    92       82           2
    92       83           2
    92       85           1
    92       89           0
    92       94           4
    93        2           0
    93       14           3
    93       27           4
    93       28           0
    93       43           2
    93       52           2
    93       63           1
    93       69           2
    93       73           3
    93       78           4
    94        5           3
    94       18           1
    94       21           4
    94       23           3
    94       28           0
    94       30           0
    94       37           2
    94       44           0
    94       58           1
    94       72           1
    95        1           1
    95        2           1
    95        4           4
    95       17           4
    95       26           3
    95       29           2
    95       47           0
    95       55           3
    95       68           2
    95       89           4
    96        7           4
    96        8           2
    96       14           2
    96       19           1
    96       20           1
    96       49           1
    96       56           0
    96       61           0
    96       86           2
    96       89           0
    97       10           2
    97       36           1
    97       40           3
    97       47           2
    97       51           0
    97       73           3
    97       76           3
    97       98           4
    97       99           0
    97      100           1
    98        8           1
    98       29           2
    98       43           4
    98       50           0
    98       55           4
    98       56           1
    98       65           4
    98       71           2
    98       84           2
    98       93           2
    99        4           0
    99       16           4
    99       52           0
    99       60           0
    99       70           3
    99       71           3
    99       86           0
    99       91           4
    99       93           2
    99       94           2
   100        6           2
   100       24           0
   100       30           4
   100       33           0
   100       39           3
   100       41           4
   100       55           3
   100       56           4
   100       88           2
   100       91           1
